
Gurobi 10.0.1 (linux64) logging started Wed May 31 22:15:23 2023

Set parameter LogFile to value "logFiles/N-1L-B/N-1L-13U-32F-23V-365D-basic.log"
Gurobi Optimizer version 10.0.1 build v10.0.1rc0 (linux64)

CPU model: Intel(R) Xeon(R) Gold 5115 CPU @ 2.40GHz, instruction set [SSE2|AVX|AVX2|AVX512]
Thread count: 20 physical cores, 40 logical processors, using up to 20 threads

Optimize a model with 335362 rows, 3653479 columns and 34660122 nonzeros
Model fingerprint: 0x81874795
Variable types: 5183 continuous, 3648296 integer (3648296 binary)
Coefficient statistics:
  Matrix range     [1e+00, 2e+05]
  Objective range  [4e+01, 3e+07]
  Bounds range     [1e+00, 1e+00]
  RHS range        [1e+00, 6e+06]
Presolve removed 200433 rows and 34561 columns (presolve time = 5s) ...
Presolve removed 201238 rows and 47219 columns (presolve time = 11s) ...
Presolve removed 201239 rows and 47219 columns (presolve time = 16s) ...
Presolve removed 201247 rows and 47227 columns (presolve time = 20s) ...
Presolve removed 201275 rows and 47227 columns (presolve time = 26s) ...
Presolve removed 208800 rows and 47227 columns (presolve time = 30s) ...
Presolve removed 208800 rows and 47227 columns (presolve time = 35s) ...
Presolve removed 208800 rows and 82717 columns (presolve time = 40s) ...
Presolve removed 208859 rows and 84806 columns (presolve time = 46s) ...
Presolve removed 211066 rows and 118742 columns (presolve time = 51s) ...
Presolve removed 211066 rows and 118742 columns
Presolve time: 53.05s

Explored 0 nodes (0 simplex iterations) in 61.60 seconds (80.21 work units)
Thread count was 1 (of 40 available processors)

Solution count 0

Time limit reached
Best objective -, best bound -, gap -
IIS computation: initial model status unknown, solving to determine model status
Presolve removed 200433 rows and 34561 columns (presolve time = 5s) ...
Presolve removed 201238 rows and 47219 columns (presolve time = 11s) ...
Presolve removed 201239 rows and 47219 columns (presolve time = 15s) ...
Presolve removed 201247 rows and 47227 columns (presolve time = 20s) ...
Presolve removed 201275 rows and 47227 columns (presolve time = 26s) ...
Presolve removed 208800 rows and 47227 columns (presolve time = 30s) ...
Presolve removed 208800 rows and 47227 columns (presolve time = 35s) ...
Presolve removed 208800 rows and 82717 columns (presolve time = 40s) ...
Presolve removed 208859 rows and 84806 columns (presolve time = 45s) ...
Presolve removed 211066 rows and 118742 columns (presolve time = 50s) ...
Presolve removed 211066 rows and 118742 columns
Presolve time: 50.52s

Explored 0 nodes (0 simplex iterations) in 60.96 seconds (78.93 work units)
Thread count was 1 (of 40 available processors)

Solution count 0

Time limit reached
Best objective -, best bound -, gap -
IIS runtime: 60.99 seconds (78.93 work units)
